c nIsolatedPIs 0
c maxPI 128
p cnf 637 1528
c gate 129 -28 29 0
-28 -129 0
29 -129 0
28 -29 129 0
c gate 130 23 -25 0
23 -130 0
-25 -130 0
-23 25 130 0
c gate 131 -23 25 0
-23 -131 0
25 -131 0
23 -25 131 0
c gate 132 -130 -131 0
-130 -132 0
-131 -132 0
130 131 132 0
c gate 133 -21 132 0
-21 -133 0
132 -133 0
21 -132 133 0
c gate 134 21 -132 0
21 -134 0
-132 -134 0
-21 132 134 0
c gate 135 -26 -27 0
-26 -135 0
-27 -135 0
26 27 135 0
c gate 136 26 27 0
26 -136 0
27 -136 0
-26 -27 136 0
c gate 137 -135 -136 0
-135 -137 0
-136 -137 0
135 136 137 0
c gate 138 -134 -137 0
-134 -138 0
-137 -138 0
134 137 138 0
c gate 139 -133 138 0
-133 -139 0
138 -139 0
133 -138 139 0
c gate 140 -23 -27 0
-23 -140 0
-27 -140 0
23 27 140 0
c gate 141 23 27 0
23 -141 0
27 -141 0
-23 -27 141 0
c gate 142 -140 -141 0
-140 -142 0
-141 -142 0
140 141 142 0
c gate 143 -22 -142 0
-22 -143 0
-142 -143 0
22 142 143 0
c gate 144 22 131 0
22 -144 0
131 -144 0
-22 -131 144 0
c gate 145 -21 -26 0
-21 -145 0
-26 -145 0
21 26 145 0
c gate 146 -130 145 0
-130 -146 0
145 -146 0
130 -145 146 0
c gate 147 -144 146 0
-144 -147 0
146 -147 0
144 -146 147 0
c gate 148 -143 147 0
-143 -148 0
147 -148 0
143 -147 148 0
c gate 149 -26 134 0
-26 -149 0
134 -149 0
26 -134 149 0
c gate 150 -23 -25 0
-23 -150 0
-25 -150 0
23 25 150 0
c gate 151 -21 26 0
-21 -151 0
26 -151 0
21 -26 151 0
c gate 152 150 151 0
150 -152 0
151 -152 0
-150 -151 152 0
c gate 153 -149 -152 0
-149 -153 0
-152 -153 0
149 152 153 0
c gate 154 -148 153 0
-148 -154 0
153 -154 0
148 -153 154 0
c gate 155 -139 154 0
-139 -155 0
154 -155 0
139 -154 155 0
c gate 156 -27 -155 0
-27 -156 0
-155 -156 0
27 155 156 0
c gate 157 23 -156 0
23 -157 0
-156 -157 0
-23 156 157 0
c gate 158 -21 -157 0
-21 -158 0
-157 -158 0
21 157 158 0
c gate 159 -25 -155 0
-25 -159 0
-155 -159 0
25 155 159 0
c gate 160 -27 -159 0
-27 -160 0
-159 -160 0
27 159 160 0
c gate 161 -19 -20 0
-19 -161 0
-20 -161 0
19 20 161 0
c gate 162 -17 -18 0
-17 -162 0
-18 -162 0
17 18 162 0
c gate 163 -15 -16 0
-15 -163 0
-16 -163 0
15 16 163 0
c gate 164 -12 -14 0
-12 -164 0
-14 -164 0
12 14 164 0
c gate 165 -10 -11 0
-10 -165 0
-11 -165 0
10 11 165 0
c gate 166 -8 -9 0
-8 -166 0
-9 -166 0
8 9 166 0
c gate 167 -6 -7 0
-6 -167 0
-7 -167 0
6 7 167 0
c gate 168 -4 -5 0
-4 -168 0
-5 -168 0
4 5 168 0
c gate 169 -3 -128 0
-3 -169 0
-128 -169 0
3 128 169 0
c gate 170 168 -169 0
168 -170 0
-169 -170 0
-168 169 170 0
c gate 171 167 -170 0
167 -171 0
-170 -171 0
-167 170 171 0
c gate 172 166 -171 0
166 -172 0
-171 -172 0
-166 171 172 0
c gate 173 165 -172 0
165 -173 0
-172 -173 0
-165 172 173 0
c gate 174 164 -173 0
164 -174 0
-173 -174 0
-164 173 174 0
c gate 175 163 -174 0
163 -175 0
-174 -175 0
-163 174 175 0
c gate 176 162 -175 0
162 -176 0
-175 -176 0
-162 175 176 0
c gate 177 161 -176 0
161 -177 0
-176 -177 0
-161 176 177 0
c gate 178 -126 -127 0
-126 -178 0
-127 -178 0
126 127 178 0
c gate 179 167 178 0
167 -179 0
178 -179 0
-167 -178 179 0
c gate 180 168 169 0
168 -180 0
169 -180 0
-168 -169 180 0
c gate 181 179 180 0
179 -181 0
180 -181 0
-179 -180 181 0
c gate 182 163 164 0
163 -182 0
164 -182 0
-163 -164 182 0
c gate 183 165 166 0
165 -183 0
166 -183 0
-165 -166 183 0
c gate 184 182 183 0
182 -184 0
183 -184 0
-182 -183 184 0
c gate 185 181 184 0
181 -185 0
184 -185 0
-181 -184 185 0
c gate 186 161 162 0
161 -186 0
162 -186 0
-161 -162 186 0
c gate 187 185 186 0
185 -187 0
186 -187 0
-185 -186 187 0
c gate 188 -124 -125 0
-124 -188 0
-125 -188 0
124 125 188 0
c gate 189 -122 -123 0
-122 -189 0
-123 -189 0
122 123 189 0
c gate 190 -120 -121 0
-120 -190 0
-121 -190 0
120 121 190 0
c gate 191 -117 -119 0
-117 -191 0
-119 -191 0
117 119 191 0
c gate 192 -115 -116 0
-115 -192 0
-116 -192 0
115 116 192 0
c gate 193 -113 -114 0
-113 -193 0
-114 -193 0
113 114 193 0
c gate 194 -111 -112 0
-111 -194 0
-112 -194 0
111 112 194 0
c gate 195 -109 -110 0
-109 -195 0
-110 -195 0
109 110 195 0
c gate 196 -93 -94 0
-93 -196 0
-94 -196 0
93 94 196 0
c gate 197 -30 -31 0
-30 -197 0
-31 -197 0
30 31 197 0
c gate 198 -32 -33 0
-32 -198 0
-33 -198 0
32 33 198 0
c gate 199 197 198 0
197 -199 0
198 -199 0
-197 -198 199 0
c gate 200 -28 -29 0
-28 -200 0
-29 -200 0
28 29 200 0
c gate 201 -30 135 0
-30 -201 0
135 -201 0
30 -135 201 0
c gate 202 200 201 0
200 -202 0
201 -202 0
-200 -201 202 0
c gate 203 199 202 0
199 -203 0
202 -203 0
-199 -202 203 0
c gate 204 155 186 0
155 -204 0
186 -204 0
-155 -186 204 0
c gate 205 203 204 0
203 -205 0
204 -205 0
-203 -204 205 0
c gate 206 -91 -92 0
-91 -206 0
-92 -206 0
91 92 206 0
c gate 207 205 206 0
205 -207 0
206 -207 0
-205 -206 207 0
c gate 208 -89 -90 0
-89 -208 0
-90 -208 0
89 90 208 0
c gate 209 -84 -86 0
-84 -209 0
-86 -209 0
84 86 209 0
c gate 210 -87 -88 0
-87 -210 0
-88 -210 0
87 88 210 0
c gate 211 208 210 0
208 -211 0
210 -211 0
-208 -210 211 0
c gate 212 196 207 0
196 -212 0
207 -212 0
-196 -207 212 0
c gate 213 211 212 0
211 -213 0
212 -213 0
-211 -212 213 0
c gate 214 -209 213 0
-209 -214 0
213 -214 0
209 -213 214 0
c gate 215 208 -214 0
208 -215 0
-214 -215 0
-208 214 215 0
c gate 216 -82 -83 0
-82 -216 0
-83 -216 0
82 83 216 0
c gate 217 209 216 0
209 -217 0
216 -217 0
-209 -216 217 0
c gate 218 213 217 0
213 -218 0
217 -218 0
-213 -217 218 0
c gate 219 -73 -75 0
-73 -219 0
-75 -219 0
73 75 219 0
c gate 220 -80 -81 0
-80 -220 0
-81 -220 0
80 81 220 0
c gate 221 -78 -79 0
-78 -221 0
-79 -221 0
78 79 221 0
c gate 222 220 221 0
220 -222 0
221 -222 0
-220 -221 222 0
c gate 223 219 222 0
219 -223 0
222 -223 0
-219 -222 223 0
c gate 224 -71 -72 0
-71 -224 0
-72 -224 0
71 72 224 0
c gate 225 -69 -70 0
-69 -225 0
-70 -225 0
69 70 225 0
c gate 226 224 225 0
224 -226 0
225 -226 0
-224 -225 226 0
c gate 227 -65 -66 0
-65 -227 0
-66 -227 0
65 66 227 0
c gate 228 -67 -68 0
-67 -228 0
-68 -228 0
67 68 228 0
c gate 229 227 228 0
227 -229 0
228 -229 0
-227 -228 229 0
c gate 230 226 229 0
226 -230 0
229 -230 0
-226 -229 230 0
c gate 231 -62 -64 0
-62 -231 0
-64 -231 0
62 64 231 0
c gate 232 -60 -61 0
-60 -232 0
-61 -232 0
60 61 232 0
c gate 233 -58 -59 0
-58 -233 0
-59 -233 0
58 59 233 0
c gate 234 232 -233 0
232 -234 0
-233 -234 0
-232 233 234 0
c gate 235 231 -234 0
231 -235 0
-234 -235 0
-231 234 235 0
c gate 236 231 232 0
231 -236 0
232 -236 0
-231 -232 236 0
c gate 237 227 236 0
227 -237 0
236 -237 0
-227 -236 237 0
c gate 238 -56 -57 0
-56 -238 0
-57 -238 0
56 57 238 0
c gate 239 233 238 0
233 -239 0
238 -239 0
-233 -238 239 0
c gate 240 237 239 0
237 -240 0
239 -240 0
-237 -239 240 0
c gate 241 228 240 0
228 -241 0
240 -241 0
-228 -240 241 0
c gate 242 226 241 0
226 -242 0
241 -242 0
-226 -241 242 0
c gate 243 -54 -55 0
-54 -243 0
-55 -243 0
54 55 243 0
c gate 244 -51 -53 0
-51 -244 0
-53 -244 0
51 53 244 0
c gate 245 -49 -50 0
-49 -245 0
-50 -245 0
49 50 245 0
c gate 246 -47 -48 0
-47 -246 0
-48 -246 0
47 48 246 0
c gate 247 -45 -46 0
-45 -247 0
-46 -247 0
45 46 247 0
c gate 248 -43 -44 0
-43 -248 0
-44 -248 0
43 44 248 0
c gate 249 -40 -42 0
-40 -249 0
-42 -249 0
40 42 249 0
c gate 250 -38 -39 0
-38 -250 0
-39 -250 0
38 39 250 0
c gate 251 -36 -37 0
-36 -251 0
-37 -251 0
36 37 251 0
c gate 252 -34 -35 0
-34 -252 0
-35 -252 0
34 35 252 0
c gate 253 -13 -24 0
-13 -253 0
-24 -253 0
13 24 253 0
c gate 254 252 -253 0
252 -254 0
-253 -254 0
-252 253 254 0
c gate 255 251 -254 0
251 -255 0
-254 -255 0
-251 254 255 0
c gate 256 250 -255 0
250 -256 0
-255 -256 0
-250 255 256 0
c gate 257 249 -256 0
249 -257 0
-256 -257 0
-249 256 257 0
c gate 258 -96 -107 0
-96 -258 0
-107 -258 0
96 107 258 0
c gate 259 -74 -85 0
-74 -259 0
-85 -259 0
74 85 259 0
c gate 260 -52 -63 0
-52 -260 0
-63 -260 0
52 63 260 0
c gate 261 259 -260 0
259 -261 0
-260 -261 0
-259 260 261 0
c gate 262 258 -261 0
258 -262 0
-261 -262 0
-258 261 262 0
c gate 263 229 -236 0
229 -263 0
-236 -263 0
-229 236 263 0
c gate 264 43 44 0
43 -264 0
44 -264 0
-43 -44 264 0
c gate 265 45 46 0
45 -265 0
46 -265 0
-45 -46 265 0
c gate 266 264 265 0
264 -266 0
265 -266 0
-264 -265 266 0
c gate 267 263 -266 0
263 -267 0
-266 -267 0
-263 266 267 0
c gate 268 247 248 0
247 -268 0
248 -268 0
-247 -248 268 0
c gate 269 -263 -268 0
-263 -269 0
-268 -269 0
263 268 269 0
c gate 270 249 250 0
249 -270 0
250 -270 0
-249 -250 270 0
c gate 271 -269 270 0
-269 -271 0
270 -271 0
269 -270 271 0
c gate 272 -267 271 0
-267 -272 0
271 -272 0
267 -271 272 0
c gate 273 245 246 0
245 -273 0
246 -273 0
-245 -246 273 0
c gate 274 251 252 0
251 -274 0
252 -274 0
-251 -252 274 0
c gate 275 -2 -118 0
-2 -275 0
-118 -275 0
2 118 275 0
c gate 276 253 275 0
253 -276 0
275 -276 0
-253 -275 276 0
c gate 277 274 276 0
274 -277 0
276 -277 0
-274 -276 277 0
c gate 278 273 277 0
273 -278 0
277 -278 0
-273 -277 278 0
c gate 279 272 278 0
272 -279 0
278 -279 0
-272 -278 279 0
c gate 280 -262 279 0
-262 -280 0
279 -280 0
262 -279 280 0
c gate 281 257 -280 0
257 -281 0
-280 -281 0
-257 280 281 0
c gate 282 248 -281 0
248 -282 0
-281 -282 0
-248 281 282 0
c gate 283 247 -282 0
247 -283 0
-282 -283 0
-247 282 283 0
c gate 284 246 -283 0
246 -284 0
-283 -284 0
-246 283 284 0
c gate 285 245 -284 0
245 -285 0
-284 -285 0
-245 284 285 0
c gate 286 244 -285 0
244 -286 0
-285 -286 0
-244 285 286 0
c gate 287 243 -286 0
243 -287 0
-286 -287 0
-243 286 287 0
c gate 288 242 -287 0
242 -288 0
-287 -288 0
-242 287 288 0
c gate 289 235 -288 0
235 -289 0
-288 -289 0
-235 288 289 0
c gate 290 230 -289 0
230 -290 0
-289 -290 0
-230 289 290 0
c gate 291 225 -228 0
225 -291 0
-228 -291 0
-225 228 291 0
c gate 292 224 -291 0
224 -292 0
-291 -292 0
-224 291 292 0
c gate 293 -290 292 0
-290 -293 0
292 -293 0
290 -292 293 0
c gate 294 223 -293 0
223 -294 0
-293 -294 0
-223 293 294 0
c gate 295 -76 -77 0
-76 -295 0
-77 -295 0
76 77 295 0
c gate 296 221 -295 0
221 -296 0
-295 -296 0
-221 295 296 0
c gate 297 220 -296 0
220 -297 0
-296 -297 0
-220 296 297 0
c gate 298 -294 297 0
-294 -298 0
297 -298 0
294 -297 298 0
c gate 299 218 -298 0
218 -299 0
-298 -299 0
-218 298 299 0
c gate 300 215 -299 0
215 -300 0
-299 -300 0
-215 299 300 0
c gate 301 207 -300 0
207 -301 0
-300 -301 0
-207 300 301 0
c gate 302 196 -301 0
196 -302 0
-301 -302 0
-196 301 302 0
c gate 303 -106 -108 0
-106 -303 0
-108 -303 0
106 108 303 0
c gate 304 -104 -105 0
-104 -304 0
-105 -304 0
104 105 304 0
c gate 305 303 304 0
303 -305 0
304 -305 0
-303 -304 305 0
c gate 306 194 195 0
194 -306 0
195 -306 0
-194 -195 306 0
c gate 307 205 306 0
205 -307 0
306 -307 0
-205 -306 307 0
c gate 308 -305 307 0
-305 -308 0
307 -308 0
305 -307 308 0
c gate 309 188 189 0
188 -309 0
189 -309 0
-188 -189 309 0
c gate 310 190 191 0
190 -310 0
191 -310 0
-190 -191 310 0
c gate 311 309 310 0
309 -311 0
310 -311 0
-309 -310 311 0
c gate 312 185 -311 0
185 -312 0
-311 -312 0
-185 311 312 0
c gate 313 192 193 0
192 -313 0
193 -313 0
-192 -193 313 0
c gate 314 -312 313 0
-312 -314 0
313 -314 0
312 -313 314 0
c gate 315 -308 314 0
-308 -315 0
314 -315 0
308 -314 315 0
c gate 316 -102 -103 0
-102 -316 0
-103 -316 0
102 103 316 0
c gate 317 -100 -101 0
-100 -317 0
-101 -317 0
100 101 317 0
c gate 318 316 317 0
316 -318 0
317 -318 0
-316 -317 318 0
c gate 319 307 -318 0
307 -319 0
-318 -319 0
-307 318 319 0
c gate 320 315 -319 0
315 -320 0
-319 -320 0
-315 319 320 0
c gate 321 -98 -99 0
-98 -321 0
-99 -321 0
98 99 321 0
c gate 322 -95 -97 0
-95 -322 0
-97 -322 0
95 97 322 0
c gate 323 321 322 0
321 -323 0
322 -323 0
-321 -322 323 0
c gate 324 303 323 0
303 -324 0
323 -324 0
-303 -323 324 0
c gate 325 320 324 0
320 -325 0
324 -325 0
-320 -324 325 0
c gate 326 -302 325 0
-302 -326 0
325 -326 0
302 -325 326 0
c gate 327 315 -316 0
315 -327 0
-316 -327 0
-315 316 327 0
c gate 328 303 -327 0
303 -328 0
-327 -328 0
-303 327 328 0
c gate 329 320 -321 0
320 -329 0
-321 -329 0
-320 321 329 0
c gate 330 328 -329 0
328 -330 0
-329 -330 0
-328 329 330 0
c gate 331 -326 330 0
-326 -331 0
330 -331 0
326 -330 331 0
c gate 332 195 -331 0
195 -332 0
-331 -332 0
-195 331 332 0
c gate 333 194 -332 0
194 -333 0
-332 -333 0
-194 332 333 0
c gate 334 193 -333 0
193 -334 0
-333 -334 0
-193 333 334 0
c gate 335 192 -334 0
192 -335 0
-334 -335 0
-192 334 335 0
c gate 336 191 -335 0
191 -336 0
-335 -336 0
-191 335 336 0
c gate 337 190 -336 0
190 -337 0
-336 -337 0
-190 336 337 0
c gate 338 189 -337 0
189 -338 0
-337 -338 0
-189 337 338 0
c gate 339 188 -338 0
188 -339 0
-338 -339 0
-188 338 339 0
c gate 340 187 -339 0
187 -340 0
-339 -340 0
-187 339 340 0
c gate 341 177 -340 0
177 -341 0
-340 -341 0
-177 340 341 0
c gate 342 -25 -341 0
-25 -342 0
-341 -342 0
25 341 342 0
c gate 343 155 -342 0
155 -343 0
-342 -343 0
-155 342 343 0
c gate 344 160 -343 0
160 -344 0
-343 -344 0
-160 343 344 0
c gate 345 -25 27 0
-25 -345 0
27 -345 0
25 -27 345 0
c gate 346 155 345 0
155 -346 0
345 -346 0
-155 -345 346 0
c gate 347 341 346 0
341 -347 0
346 -347 0
-341 -346 347 0
c gate 348 -23 -347 0
-23 -348 0
-347 -348 0
23 347 348 0
c gate 349 -344 348 0
-344 -349 0
348 -349 0
344 -348 349 0
c gate 350 158 -349 0
158 -350 0
-349 -350 0
-158 349 350 0
c gate 351 -129 -350 0
-129 -351 0
-350 -351 0
129 350 351 0
c gate 352 -32 129 0
-32 -352 0
129 -352 0
32 -129 352 0
c gate 353 -351 -352 0
-351 -353 0
-352 -353 0
351 352 353 0
c gate 354 248 -257 0
248 -354 0
-257 -354 0
-248 257 354 0
c gate 355 247 -354 0
247 -355 0
-354 -355 0
-247 354 355 0
c gate 356 246 -355 0
246 -356 0
-355 -356 0
-246 355 356 0
c gate 357 245 -356 0
245 -357 0
-356 -357 0
-245 356 357 0
c gate 358 244 -357 0
244 -358 0
-357 -358 0
-244 357 358 0
c gate 359 243 -358 0
243 -359 0
-358 -359 0
-243 358 359 0
c gate 360 241 -359 0
241 -360 0
-359 -360 0
-241 359 360 0
c gate 361 235 -360 0
235 -361 0
-360 -361 0
-235 360 361 0
c gate 362 227 -361 0
227 -362 0
-361 -362 0
-227 361 362 0
c gate 363 224 228 0
224 -363 0
228 -363 0
-224 -228 363 0
c gate 364 -362 363 0
-362 -364 0
363 -364 0
362 -363 364 0
c gate 365 219 -364 0
219 -365 0
-364 -365 0
-219 364 365 0
c gate 366 295 -365 0
295 -366 0
-365 -366 0
-295 365 366 0
c gate 367 221 -366 0
221 -367 0
-366 -367 0
-221 366 367 0
c gate 368 220 -367 0
220 -368 0
-367 -368 0
-220 367 368 0
c gate 369 218 -368 0
218 -369 0
-368 -369 0
-218 368 369 0
c gate 370 215 -369 0
215 -370 0
-369 -370 0
-215 369 370 0
c gate 371 207 -370 0
207 -371 0
-370 -371 0
-207 370 371 0
c gate 372 196 -371 0
196 -372 0
-371 -372 0
-196 371 372 0
c gate 373 322 -372 0
322 -373 0
-372 -373 0
-322 372 373 0
c gate 374 321 -373 0
321 -374 0
-373 -374 0
-321 373 374 0
c gate 375 320 -374 0
320 -375 0
-374 -375 0
-320 374 375 0
c gate 376 328 -375 0
328 -376 0
-375 -376 0
-328 375 376 0
c gate 377 195 -376 0
195 -377 0
-376 -377 0
-195 376 377 0
c gate 378 194 -377 0
194 -378 0
-377 -378 0
-194 377 378 0
c gate 379 193 -378 0
193 -379 0
-378 -379 0
-193 378 379 0
c gate 380 192 -379 0
192 -380 0
-379 -380 0
-192 379 380 0
c gate 381 191 -380 0
191 -381 0
-380 -381 0
-191 380 381 0
c gate 382 190 -381 0
190 -382 0
-381 -382 0
-190 381 382 0
c gate 383 189 -382 0
189 -383 0
-382 -383 0
-189 382 383 0
c gate 384 188 -383 0
188 -384 0
-383 -384 0
-188 383 384 0
c gate 385 187 -384 0
187 -385 0
-384 -385 0
-187 384 385 0
c gate 386 177 -385 0
177 -386 0
-385 -386 0
-177 385 386 0
c gate 387 -25 -386 0
-25 -387 0
-386 -387 0
25 386 387 0
c gate 388 155 -387 0
155 -388 0
-387 -388 0
-155 387 388 0
c gate 389 160 -388 0
160 -389 0
-388 -389 0
-160 388 389 0
c gate 390 346 386 0
346 -390 0
386 -390 0
-346 -386 390 0
c gate 391 -23 -390 0
-23 -391 0
-390 -391 0
23 390 391 0
c gate 392 -389 391 0
-389 -392 0
391 -392 0
389 -391 392 0
c gate 393 158 -392 0
158 -393 0
-392 -393 0
-158 392 393 0
c gate 394 -353 -393 0
-353 -394 0
-393 -394 0
353 393 394 0
c gate 395 -351 393 0
-351 -395 0
393 -395 0
351 -393 395 0
c gate 396 21 -150 0
21 -396 0
-150 -396 0
-21 150 396 0
c gate 397 156 396 0
156 -397 0
396 -397 0
-156 -396 397 0
c gate 398 -28 199 0
-28 -398 0
199 -398 0
28 -199 398 0
c gate 399 -397 398 0
-397 -399 0
398 -399 0
397 -398 399 0
c gate 400 -395 399 0
-395 -400 0
399 -400 0
395 -399 400 0
c gate 401 -394 400 0
-394 -401 0
400 -401 0
394 -400 401 0
c gate 402 196 323 0
196 -402 0
323 -402 0
-196 -323 402 0
c gate 403 243 244 0
243 -403 0
244 -403 0
-243 -244 403 0
c gate 404 41 -52 0
41 -404 0
-52 -404 0
-41 52 404 0
c gate 405 -63 -404 0
-63 -405 0
-404 -405 0
63 404 405 0
c gate 406 -74 -405 0
-74 -406 0
-405 -406 0
74 405 406 0
c gate 407 -85 -406 0
-85 -407 0
-406 -407 0
85 406 407 0
c gate 408 -96 -407 0
-96 -408 0
-407 -408 0
96 407 408 0
c gate 409 -107 -408 0
-107 -409 0
-408 -409 0
107 408 409 0
c gate 410 -118 -409 0
-118 -410 0
-409 -410 0
118 409 410 0
c gate 411 -2 -410 0
-2 -411 0
-410 -411 0
2 410 411 0
c gate 412 -13 -411 0
-13 -412 0
-411 -412 0
13 411 412 0
c gate 413 -24 -412 0
-24 -413 0
-412 -413 0
24 412 413 0
c gate 414 274 -413 0
274 -414 0
-413 -414 0
-274 413 414 0
c gate 415 35 -36 0
35 -415 0
-36 -415 0
-35 36 415 0
c gate 416 -37 -415 0
-37 -416 0
-415 -416 0
37 415 416 0
c gate 417 -414 416 0
-414 -417 0
416 -417 0
414 -416 417 0
c gate 418 248 270 0
248 -418 0
270 -418 0
-248 -270 418 0
c gate 419 -417 418 0
-417 -419 0
418 -419 0
417 -418 419 0
c gate 420 39 -40 0
39 -420 0
-40 -420 0
-39 40 420 0
c gate 421 -42 -420 0
-42 -421 0
-420 -421 0
42 420 421 0
c gate 422 -43 -421 0
-43 -422 0
-421 -422 0
43 421 422 0
c gate 423 -44 -422 0
-44 -423 0
-422 -423 0
44 422 423 0
c gate 424 -419 423 0
-419 -424 0
423 -424 0
419 -423 424 0
c gate 425 246 247 0
246 -425 0
247 -425 0
-246 -247 425 0
c gate 426 -424 425 0
-424 -426 0
425 -426 0
424 -425 426 0
c gate 427 46 -47 0
46 -427 0
-47 -427 0
-46 47 427 0
c gate 428 -48 -427 0
-48 -428 0
-427 -428 0
48 427 428 0
c gate 429 -426 428 0
-426 -429 0
428 -429 0
426 -428 429 0
c gate 430 -49 -429 0
-49 -430 0
-429 -430 0
49 429 430 0
c gate 431 -50 -430 0
-50 -431 0
-430 -431 0
50 430 431 0
c gate 432 403 -431 0
403 -432 0
-431 -432 0
-403 431 432 0
c gate 433 53 -54 0
53 -433 0
-54 -433 0
-53 54 433 0
c gate 434 -55 -433 0
-55 -434 0
-433 -434 0
55 433 434 0
c gate 435 -432 434 0
-432 -435 0
434 -435 0
432 -434 435 0
c gate 436 239 -435 0
239 -436 0
-435 -436 0
-239 435 436 0
c gate 437 57 -58 0
57 -437 0
-58 -437 0
-57 58 437 0
c gate 438 -59 -437 0
-59 -438 0
-437 -438 0
59 437 438 0
c gate 439 -436 438 0
-436 -439 0
438 -439 0
436 -438 439 0
c gate 440 237 -439 0
237 -440 0
-439 -440 0
-237 439 440 0
c gate 441 61 -62 0
61 -441 0
-62 -441 0
-61 62 441 0
c gate 442 -64 -441 0
-64 -442 0
-441 -442 0
64 441 442 0
c gate 443 -65 -442 0
-65 -443 0
-442 -443 0
65 442 443 0
c gate 444 -66 -443 0
-66 -444 0
-443 -444 0
66 443 444 0
c gate 445 -440 444 0
-440 -445 0
444 -445 0
440 -444 445 0
c gate 446 -67 -445 0
-67 -446 0
-445 -446 0
67 445 446 0
c gate 447 -68 -446 0
-68 -447 0
-446 -447 0
68 446 447 0
c gate 448 -69 -447 0
-69 -448 0
-447 -448 0
69 447 448 0
c gate 449 -70 -448 0
-70 -449 0
-448 -449 0
70 448 449 0
c gate 450 219 295 0
219 -450 0
295 -450 0
-219 -295 450 0
c gate 451 224 450 0
224 -451 0
450 -451 0
-224 -450 451 0
c gate 452 -449 451 0
-449 -452 0
451 -452 0
449 -451 452 0
c gate 453 72 -73 0
72 -453 0
-73 -453 0
-72 73 453 0
c gate 454 -75 -453 0
-75 -454 0
-453 -454 0
75 453 454 0
c gate 455 -76 -454 0
-76 -455 0
-454 -455 0
76 454 455 0
c gate 456 -77 -455 0
-77 -456 0
-455 -456 0
77 455 456 0
c gate 457 -452 456 0
-452 -457 0
456 -457 0
452 -456 457 0
c gate 458 222 -457 0
222 -458 0
-457 -458 0
-222 457 458 0
c gate 459 79 -80 0
79 -459 0
-80 -459 0
-79 80 459 0
c gate 460 -81 -459 0
-81 -460 0
-459 -460 0
81 459 460 0
c gate 461 -458 460 0
-458 -461 0
460 -461 0
458 -460 461 0
c gate 462 210 217 0
210 -462 0
217 -462 0
-210 -217 462 0
c gate 463 -461 462 0
-461 -463 0
462 -463 0
461 -462 463 0
c gate 464 83 -84 0
83 -464 0
-84 -464 0
-83 84 464 0
c gate 465 -86 -464 0
-86 -465 0
-464 -465 0
86 464 465 0
c gate 466 -87 -465 0
-87 -466 0
-465 -466 0
87 465 466 0
c gate 467 -88 -466 0
-88 -467 0
-466 -467 0
88 466 467 0
c gate 468 -463 467 0
-463 -468 0
467 -468 0
463 -467 468 0
c gate 469 206 208 0
206 -469 0
208 -469 0
-206 -208 469 0
c gate 470 -468 469 0
-468 -470 0
469 -470 0
468 -469 470 0
c gate 471 90 -91 0
90 -471 0
-91 -471 0
-90 91 471 0
c gate 472 -92 -471 0
-92 -472 0
-471 -472 0
92 471 472 0
c gate 473 -470 472 0
-470 -473 0
472 -473 0
470 -472 473 0
c gate 474 402 -473 0
402 -474 0
-473 -474 0
-402 473 474 0
c gate 475 94 323 0
94 -475 0
323 -475 0
-94 -323 475 0
c gate 476 97 -98 0
97 -476 0
-98 -476 0
-97 98 476 0
c gate 477 -99 -476 0
-99 -477 0
-476 -477 0
99 476 477 0
c gate 478 -475 477 0
-475 -478 0
477 -478 0
475 -477 478 0
c gate 479 -474 478 0
-474 -479 0
478 -479 0
474 -478 479 0
c gate 480 318 -479 0
318 -480 0
-479 -480 0
-318 479 480 0
c gate 481 101 -102 0
101 -481 0
-102 -481 0
-101 102 481 0
c gate 482 -103 -481 0
-103 -482 0
-481 -482 0
103 481 482 0
c gate 483 -480 482 0
-480 -483 0
482 -483 0
480 -482 483 0
c gate 484 195 305 0
195 -484 0
305 -484 0
-195 -305 484 0
c gate 485 -483 484 0
-483 -485 0
484 -485 0
483 -484 485 0
c gate 486 105 -106 0
105 -486 0
-106 -486 0
-105 106 486 0
c gate 487 -108 -486 0
-108 -487 0
-486 -487 0
108 486 487 0
c gate 488 -109 -487 0
-109 -488 0
-487 -488 0
109 487 488 0
c gate 489 -110 -488 0
-110 -489 0
-488 -489 0
110 488 489 0
c gate 490 -485 489 0
-485 -490 0
489 -490 0
485 -489 490 0
c gate 491 194 314 0
194 -491 0
314 -491 0
-194 -314 491 0
c gate 492 -490 491 0
-490 -492 0
491 -492 0
490 -491 492 0
c gate 493 112 314 0
112 -493 0
314 -493 0
-112 -314 493 0
c gate 494 114 -115 0
114 -494 0
-115 -494 0
-114 115 494 0
c gate 495 -116 -494 0
-116 -495 0
-494 -495 0
116 494 495 0
c gate 496 -117 -495 0
-117 -496 0
-495 -496 0
117 495 496 0
c gate 497 -119 -496 0
-119 -497 0
-496 -497 0
119 496 497 0
c gate 498 -120 -497 0
-120 -498 0
-497 -498 0
120 497 498 0
c gate 499 -121 -498 0
-121 -499 0
-498 -499 0
121 498 499 0
c gate 500 309 -499 0
309 -500 0
-499 -500 0
-309 499 500 0
c gate 501 123 -124 0
123 -501 0
-124 -501 0
-123 124 501 0
c gate 502 -125 -501 0
-125 -502 0
-501 -502 0
125 501 502 0
c gate 503 -500 502 0
-500 -503 0
502 -503 0
500 -502 503 0
c gate 504 -493 503 0
-493 -504 0
503 -504 0
493 -503 504 0
c gate 505 -492 504 0
-492 -505 0
504 -505 0
492 -504 505 0
c gate 506 127 -128 0
127 -506 0
-128 -506 0
-127 128 506 0
c gate 507 -3 -506 0
-3 -507 0
-506 -507 0
3 506 507 0
c gate 508 -4 -507 0
-4 -508 0
-507 -508 0
4 507 508 0
c gate 509 -5 -508 0
-5 -509 0
-508 -509 0
5 508 509 0
c gate 510 -6 -509 0
-6 -510 0
-509 -510 0
6 509 510 0
c gate 511 -7 -510 0
-7 -511 0
-510 -511 0
7 510 511 0
c gate 512 -8 -511 0
-8 -512 0
-511 -512 0
8 511 512 0
c gate 513 -9 -512 0
-9 -513 0
-512 -513 0
9 512 513 0
c gate 514 -10 -513 0
-10 -514 0
-513 -514 0
10 513 514 0
c gate 515 -11 -514 0
-11 -515 0
-514 -515 0
11 514 515 0
c gate 516 182 -515 0
182 -516 0
-515 -516 0
-182 515 516 0
c gate 517 14 -15 0
14 -517 0
-15 -517 0
-14 15 517 0
c gate 518 -16 -517 0
-16 -518 0
-517 -518 0
16 517 518 0
c gate 519 -516 518 0
-516 -519 0
518 -519 0
516 -518 519 0
c gate 520 186 -519 0
186 -520 0
-519 -520 0
-186 519 520 0
c gate 521 18 -19 0
18 -521 0
-19 -521 0
-18 19 521 0
c gate 522 -20 -521 0
-20 -522 0
-521 -522 0
20 521 522 0
c gate 523 -520 522 0
-520 -523 0
522 -523 0
520 -522 523 0
c gate 524 -21 -523 0
-21 -524 0
-523 -524 0
21 523 524 0
c gate 525 -22 -524 0
-22 -525 0
-524 -525 0
22 524 525 0
c gate 526 135 150 0
135 -526 0
150 -526 0
-135 -150 526 0
c gate 527 -525 526 0
-525 -527 0
526 -527 0
525 -526 527 0
c gate 528 25 -26 0
25 -528 0
-26 -528 0
-25 26 528 0
c gate 529 -27 -528 0
-27 -529 0
-528 -529 0
27 528 529 0
c gate 530 -527 529 0
-527 -530 0
529 -530 0
527 -529 530 0
c gate 531 197 200 0
197 -531 0
200 -531 0
-197 -200 531 0
c gate 532 -530 531 0
-530 -532 0
531 -532 0
530 -531 532 0
c gate 533 -32 -532 0
-32 -533 0
-532 -533 0
32 532 533 0
c gate 534 -32 185 0
-32 -534 0
185 -534 0
32 -185 534 0
c gate 535 -29 197 0
-29 -535 0
197 -535 0
29 -197 535 0
c gate 536 -534 535 0
-534 -536 0
535 -536 0
534 -535 536 0
c gate 537 -33 -536 0
-33 -537 0
-536 -537 0
33 536 537 0
c gate 538 205 537 0
205 -538 0
537 -538 0
-205 -537 538 0
c gate 539 -533 538 0
-533 -539 0
538 -539 0
533 -538 539 0
c gate 540 -505 539 0
-505 -540 0
539 -540 0
505 -539 540 0
c gate 541 307 314 0
307 -541 0
314 -541 0
-307 -314 541 0
c gate 542 307 320 0
307 -542 0
320 -542 0
-307 -320 542 0
c gate 543 206 402 0
206 -543 0
402 -543 0
-206 -402 543 0
c gate 544 542 543 0
542 -544 0
543 -544 0
-542 -543 544 0
c gate 545 -218 544 0
-218 -545 0
544 -545 0
218 -544 545 0
c gate 546 320 -545 0
320 -546 0
-545 -546 0
-320 545 546 0
c gate 547 541 -546 0
541 -547 0
-546 -547 0
-541 546 547 0
c gate 548 223 295 0
223 -548 0
295 -548 0
-223 -295 548 0
c gate 549 185 548 0
185 -549 0
548 -549 0
-185 -548 549 0
c gate 550 218 549 0
218 -550 0
549 -550 0
-218 -549 550 0
c gate 551 242 403 0
242 -551 0
403 -551 0
-242 -403 551 0
c gate 552 279 551 0
279 -552 0
551 -552 0
-279 -551 552 0
c gate 553 273 403 0
273 -553 0
403 -553 0
-273 -403 553 0
c gate 554 -272 553 0
-272 -554 0
553 -554 0
272 -553 554 0
c gate 555 240 -554 0
240 -555 0
-554 -555 0
-240 554 555 0
c gate 556 -552 555 0
-552 -556 0
555 -556 0
552 -555 556 0
c gate 557 230 -556 0
230 -557 0
-556 -557 0
-230 556 557 0
c gate 558 550 -557 0
550 -558 0
-557 -558 0
-550 557 558 0
c gate 559 544 558 0
544 -559 0
558 -559 0
-544 -558 559 0
c gate 560 -547 -559 0
-547 -560 0
-559 -560 0
547 559 560 0
c gate 561 -203 560 0
-203 -561 0
560 -561 0
203 -560 561 0
c gate 562 311 560 0
311 -562 0
560 -562 0
-311 -560 562 0
c gate 563 181 -562 0
181 -563 0
-562 -563 0
-181 562 563 0
c gate 564 184 -563 0
184 -564 0
-563 -564 0
-184 563 564 0
c gate 565 205 -564 0
205 -565 0
-564 -565 0
-205 564 565 0
c gate 566 -561 -565 0
-561 -566 0
-565 -566 0
561 565 566 0
c gate 567 229 -555 0
229 -567 0
-555 -567 0
-229 555 567 0
c gate 568 550 -567 0
550 -568 0
-567 -568 0
-550 567 568 0
c gate 569 212 -218 0
212 -569 0
-218 -569 0
-212 218 569 0
c gate 570 -568 -569 0
-568 -570 0
-569 -570 0
568 569 570 0
c gate 571 323 -570 0
323 -571 0
-570 -571 0
-323 570 571 0
c gate 572 320 -571 0
320 -572 0
-571 -572 0
-320 571 572 0
c gate 573 185 541 0
185 -573 0
541 -573 0
-185 -541 573 0
c gate 574 -572 573 0
-572 -574 0
573 -574 0
572 -573 574 0
c gate 575 184 -312 0
184 -575 0
-312 -575 0
-184 312 575 0
c gate 576 204 -575 0
204 -576 0
-575 -576 0
-204 575 576 0
c gate 577 203 -576 0
203 -577 0
-576 -577 0
-203 576 577 0
c gate 578 -574 577 0
-574 -578 0
577 -578 0
574 -577 578 0
c gate 579 -566 -578 0
-566 -579 0
-578 -579 0
566 578 579 0
c gate 580 566 578 0
566 -580 0
578 -580 0
-566 -578 580 0
c gate 581 -579 -580 0
-579 -581 0
-580 -581 0
579 580 581 0
c gate 582 323 542 0
323 -582 0
542 -582 0
-323 -542 582 0
c gate 583 217 -222 0
217 -583 0
-222 -583 0
-217 222 583 0
c gate 584 211 -583 0
211 -584 0
-583 -584 0
-211 583 584 0
c gate 585 212 -584 0
212 -585 0
-584 -585 0
-212 584 585 0
c gate 586 258 259 0
258 -586 0
259 -586 0
-258 -259 586 0
c gate 587 552 -586 0
552 -587 0
-586 -587 0
-552 586 587 0
c gate 588 270 -274 0
270 -588 0
-274 -588 0
-270 274 588 0
c gate 589 268 -588 0
268 -589 0
-588 -589 0
-268 588 589 0
c gate 590 273 -589 0
273 -590 0
-589 -590 0
-273 589 590 0
c gate 591 403 -590 0
403 -591 0
-590 -591 0
-403 590 591 0
c gate 592 241 -591 0
241 -592 0
-591 -592 0
-241 591 592 0
c gate 593 -263 -592 0
-263 -593 0
-592 -593 0
263 592 593 0
c gate 594 226 593 0
226 -594 0
593 -594 0
-226 -593 594 0
c gate 595 -587 594 0
-587 -595 0
594 -595 0
587 -594 595 0
c gate 596 550 -595 0
550 -596 0
-595 -596 0
-550 595 596 0
c gate 597 -585 -596 0
-585 -597 0
-596 -597 0
585 596 597 0
c gate 598 582 -597 0
582 -598 0
-597 -598 0
-582 597 598 0
c gate 599 318 -323 0
318 -599 0
-323 -599 0
-318 323 599 0
c gate 600 541 599 0
541 -600 0
599 -600 0
-541 -599 600 0
c gate 601 -598 -600 0
-598 -601 0
-600 -601 0
598 600 601 0
c gate 602 550 -593 0
550 -602 0
-593 -602 0
-550 593 602 0
c gate 603 323 -585 0
323 -603 0
-585 -603 0
-323 585 603 0
c gate 604 -602 603 0
-602 -604 0
603 -604 0
602 -603 604 0
c gate 605 542 -604 0
542 -605 0
-604 -605 0
-542 604 605 0
c gate 606 -601 605 0
-601 -606 0
605 -606 0
601 -605 606 0
c gate 607 601 -605 0
601 -607 0
-605 -607 0
-601 605 607 0
c gate 608 182 -205 0
182 -608 0
-205 -608 0
-182 205 608 0
c gate 609 -182 205 0
-182 -609 0
205 -609 0
182 -205 609 0
c gate 610 -155 202 0
-155 -610 0
202 -610 0
155 -202 610 0
c gate 611 199 311 0
199 -611 0
311 -611 0
-199 -311 611 0
c gate 612 185 611 0
185 -612 0
611 -612 0
-185 -611 612 0
c gate 613 -610 612 0
-610 -613 0
612 -613 0
610 -612 613 0
c gate 614 -609 613 0
-609 -614 0
613 -614 0
609 -613 614 0
c gate 615 -608 614 0
-608 -615 0
614 -615 0
608 -614 615 0
c gate 616 315 615 0
315 -616 0
615 -616 0
-315 -615 616 0
c gate 617 -607 616 0
-607 -617 0
616 -617 0
607 -616 617 0
c gate 618 -606 617 0
-606 -618 0
617 -618 0
606 -617 618 0
c gate 619 -1 -41 0
-1 -619 0
-41 -619 0
1 41 619 0
c gate 620 -97 619 0
-97 -620 0
619 -620 0
97 -619 620 0
c gate 621 260 620 0
260 -621 0
620 -621 0
-260 -620 621 0
c gate 622 586 621 0
586 -622 0
621 -622 0
-586 -621 622 0
c gate 623 552 622 0
552 -623 0
622 -623 0
-552 -622 623 0
c gate 624 550 623 0
550 -624 0
623 -624 0
-550 -623 624 0
c gate 625 582 624 0
582 -625 0
624 -625 0
-582 -624 625 0
c gate 626 -226 241 0
-226 -626 0
241 -626 0
226 -241 626 0
c gate 627 550 626 0
550 -627 0
626 -627 0
-550 -626 627 0
c gate 628 -97 98 0
-97 -628 0
98 -628 0
97 -98 628 0
c gate 629 -476 -628 0
-476 -629 0
-628 -629 0
476 628 629 0
c gate 630 -627 629 0
-627 -630 0
629 -630 0
627 -629 630 0
c gate 631 185 544 0
185 -631 0
544 -631 0
-185 -544 631 0
c gate 632 -630 631 0
-630 -632 0
631 -632 0
630 -631 632 0
c gate 633 -625 -632 0
-625 -633 0
-632 -633 0
625 632 633 0
c gate 634 -618 633 0
-618 -634 0
633 -634 0
618 -633 634 0
c gate 635 -581 634 0
-581 -635 0
634 -635 0
581 -634 635 0
c gate 636 -540 635 0
-540 -636 0
635 -636 0
540 -635 636 0
c gate 637 -401 636 0
-401 -637 0
636 -637 0
401 -636 637 0
c PO
-637 0
